Optimal - objective value 6.00000000
      0 x_0_0                       1                       0
      2 x_1_1                       1                       0
      5 x_2_2                       1                       1
      9 x_3_3                       1                       1
     14 x_4_4                       1                       1
     16 x_5_1                       1                       1
     23 x_6_2                       1                       0
     35 x_7_7                       1                       1
     38 x_8_2                       1                       0
     48 x_9_3                       1                       0
     62 x_10_7                      1                      -1
     73 x_11_7                      1                      -1
     78 x_12_0                      1                       0
     98 x_13_7                      1                       0
    107 x_14_2                      1                       0
    120 x_15_0                      1                       1
    139 x_16_3                      1                       0
    157 x_17_4                      1                      -1
    175 x_18_4                      1                       0
    197 x_19_7                      1                       0
    211 x_20_1                      1                       0
    231 x_21_0                      1                       0
    257 x_22_4                      1                       0
    280 x_23_4                      1                       0
    301 x_24_1                      1                       0
    328 x_25_3                      1                       0
    352 x_26_1                      1                       0
    380 x_27_2                      1                       0
    408 x_28_2                      1                       0
    436 x_29_1                      1                       0
